     Program PWSCF v.7.3.1 starts on 15Apr2025 at 21:27:35

     Reading input from pw.in
Warning: card &CELL ignored
Warning: card / ignored
Warning: card ~ ignored
Warning: card ~ ignored
Warning: card ~ ignored
Warning: card ~ ignored
Warning: card ~ ignored

     Current dimensions of program PWSCF are:
     Max number of different atomic species (ntypx) = 10
     Max number of k-points (npk) =  40000
     Max angular momentum in pseudopotentials (lmaxx) =  4
     file C.pbe-n-kjpaw_psl.1.0.0.UPF: wavefunction(s)  2S 2P renormalized
     file Al.pbe-n-kjpaw_psl.1.0.0.UPF: wavefunction(s)  3S 3P renormalized
     file Cl.pbe-n-kjpaw_psl.1.0.0.UPF: wavefunction(s)  3S 3P renormalized

     R & G space division:  proc/nbgrp/npool/nimage =      64
     Subspace diagonalization in iterative solution of the eigenvalue problem:
     one sub-group per band group will be used

     Using Slab Decomposition

     bravais-lattice index     =            0
     lattice parameter (alat)  =      94.4863  a.u.
     unit-cell volume          =  295239.6341 (a.u.)^3
     number of atoms/cell      =          197
     number of atomic types    =            3
     number of electrons       =       799.00
     number of Kohn-Sham states=          480
     kinetic-energy cutoff     =      45.3312  Ry
     charge density cutoff     =     326.2606  Ry
     scf convergence threshold =      1.0E-06
     mixing beta               =       0.7000
     number of iterations used =            8  local-TF  mixing
     energy convergence thresh.=      1.0E-04
     force convergence thresh. =      1.0E-03
     Exchange-correlation= SLA  PW   PBX  PBC
                           (   1   4   3   4   0   0   0)
     nstep                     =          200

     celldm(1)=  94.486306  celldm(2)=   0.000000  celldm(3)=   0.000000
     celldm(4)=   0.000000  celldm(5)=   0.000000  celldm(6)=   0.000000

     crystal axes: (cart. coord. in units of alat)
               a(1) = (   1.000000   0.000000   0.000000 )
               a(2) = (   0.000000   1.000000   0.000000 )
               a(3) = (   0.000000   0.000000   0.350000 )

     reciprocal axes: (cart. coord. in units 2 pi/alat)
               b(1) = (  1.000000  0.000000  0.000000 )
               b(2) = (  0.000000  1.000000  0.000000 )
               b(3) = (  0.000000  0.000000  2.857143 )

     PseudoPot. # 1 for C  read from file:
     /home/elmer.barquero/carbon_nn/pseudo/C.pbe-n-kjpaw_psl.1.0.0.UPF
     MD5 check sum: 5f16ad9a65e90284d1d834d4ab3b0f7d
     Pseudo is Projector augmented-wave + core cor, Zval =  4.0
     Generated using &quot;atomic&quot; code by A. Dal Corso  v.6.3
     Shape of augmentation charge: PSQ
     Using radial grid of 1073 points,  4 beta functions with:
                l(1) =   0
                l(2) =   0
                l(3) =   1
                l(4) =   1
     Q(r) pseudized with 0 coefficients

     PseudoPot. # 2 for Al read from file:
     /home/elmer.barquero/carbon_nn/pseudo/Al.pbe-n-kjpaw_psl.1.0.0.UPF
     MD5 check sum: 502b6b27b9c6270cab5dd1084b96fa6d
     Pseudo is Projector augmented-wave + core cor, Zval =  3.0
     Generated using &quot;atomic&quot; code by A. Dal Corso  v.6.3
     Shape of augmentation charge: PSQ
     Using radial grid of 1135 points,  6 beta functions with:
                l(1) =   0
                l(2) =   0
                l(3) =   1
                l(4) =   1
                l(5) =   2
                l(6) =   2
     Q(r) pseudized with 0 coefficients

     PseudoPot. # 3 for Cl read from file:
     /home/elmer.barquero/carbon_nn/pseudo/Cl.pbe-n-kjpaw_psl.1.0.0.UPF
     MD5 check sum: 530da96d25dcb7781b0586ca00827062
     Pseudo is Projector augmented-wave + core cor, Zval =  7.0
     Generated using &quot;atomic&quot; code by A. Dal Corso  v.6.3
     Shape of augmentation charge: PSQ
     Using radial grid of 1157 points,  6 beta functions with:
                l(1) =   0
                l(2) =   0
                l(3) =   1
                l(4) =   1
                l(5) =   2
                l(6) =   2
     Q(r) pseudized with 0 coefficients

     atomic species   valence    mass     pseudopotential
     C                 4.00    12.01100     C ( 1.00)
     Al                3.00    26.98154     Al( 1.00)
     Cl                7.00    35.45000     Cl( 1.00)

     No symmetry found

   Cartesian axes

     site n.     atom                  positions (alat units)
         1        C      tau(   1) = (   0.6087439   0.4368363   0.0220164  )
         2        C      tau(   2) = (   0.6016427   0.5149120   0.1479251  )
         3        C      tau(   3) = (   0.5446482   0.5775385   0.0003594  )
         4        C      tau(   4) = (   0.4636858   0.6013250   0.0003423  )
         5        C      tau(   5) = (   0.3833236   0.5760316   0.0002793  )
         6        C      tau(   6) = (   0.3381571   0.5054522   0.0002625  )
         7        C      tau(   7) = (   0.3502194   0.4222491   0.0002434  )
         8        C      tau(   8) = (   0.4072388   0.3596472   0.0002361  )
         9        C      tau(   9) = (   0.4861825   0.3283813   0.0002169  )
        10        C      tau(  10) = (   0.5710002   0.3324763   0.0001877  )
        11        C      tau(  11) = (   0.6449573   0.3736088   0.0001728  )
        12        C      tau(  12) = (   0.6854474   0.4474079   0.0001397  )
        13        C      tau(  13) = (   0.6799082   0.5318598   0.0001301  )
        14        C      tau(  14) = (   0.6511548   0.6122100   0.0001070  )
        15        C      tau(  15) = (   0.6188216   0.6911619   0.0001761  )
        16        C      tau(  16) = (   0.5799057   0.7676895   0.1479901  )
        17        C      tau(  17) = (   0.6146234   0.4589080   0.0039973  )
        18        C      tau(  18) = (   0.5865709   0.5391851   0.1480996  )
        19        C      tau(  19) = (   0.5192575   0.5904013   0.0003588  )
        20        C      tau(  20) = (   0.4352926   0.5986431   0.0003122  )
        21        C      tau(  21) = (   0.3626303   0.5564385   0.0002741  )
        22        C      tau(  22) = (   0.3358251   0.4770575   0.0002487  )
        23        C      tau(  23) = (   0.3654956   0.3981938   0.0002438  )
        24        C      tau(  24) = (   0.4319718   0.3455063   0.0002297  )
        25        C      tau(  25) = (   0.5145516   0.3257077   0.0002059  )
        26        C      tau(  26) = (   0.5978247   0.3420628   0.0001800  )
        27        C      tau(  27) = (   0.6634197   0.3952844   0.0001664  )
        28        C      tau(  28) = (   0.6882050   0.4757249   0.0001313  )
        29        C      tau(  29) = (   0.6714436   0.5590231   0.0001217  )
        30        C      tau(  30) = (   0.6405062   0.6386059   0.0001037  )
        31        C      tau(  31) = (   0.6069723   0.7170599   0.0002286  )
        32        C      tau(  32) = (   0.5649640   0.7925049   0.1473317  )
        33        C      tau(  33) = (   0.6199751   0.4788678   0.0247973  )
        34        C      tau(  34) = (   0.5782262   0.5508711   0.0247983  )
        35        C      tau(  35) = (   0.5058542   0.5949136   0.0250550  )
        36        C      tau(  36) = (   0.4214342   0.5951645   0.0249738  )
        37        C      tau(  37) = (   0.3541992   0.5449237   0.0249570  )
        38        C      tau(  38) = (   0.3371386   0.4628440   0.0249328  )
        39        C      tau(  39) = (   0.3747225   0.3873108   0.0249286  )
        40        C      tau(  40) = (   0.4450410   0.3397992   0.0249122  )
        41        C      tau(  41) = (   0.5288175   0.3258459   0.0248865  )
        42        C      tau(  42) = (   0.6106202   0.3483688   0.0248611  )
        43        C      tau(  43) = (   0.6711636   0.4072658   0.0248449  )
        44        C      tau(  44) = (   0.6878945   0.4899411   0.0248173  )
        45        C      tau(  45) = (   0.6666466   0.5724148   0.0247995  )
        46        C      tau(  46) = (   0.6352265   0.6517596   0.0247939  )
        47        C      tau(  47) = (   0.6004982   0.7301112   0.0247752  )
        48        C      tau(  48) = (   0.5570716   0.8050262   0.0247782  )
        49        C      tau(  49) = (   0.6106278   0.5052146   0.0247078  )
        50        C      tau(  50) = (   0.5567463   0.5696595   0.0249244  )
        51        C      tau(  51) = (   0.4778900   0.6003761   0.0250356  )
        52        C      tau(  52) = (   0.3952842   0.5838290   0.0249644  )
        53        C      tau(  53) = (   0.3418920   0.5192305   0.0249493  )
        54        C      tau(  54) = (   0.3444517   0.4353030   0.0249311  )
        55        C      tau(  55) = (   0.3957001   0.3680347   0.0249222  )
        56        C      tau(  56) = (   0.4722079   0.3312163   0.0249046  )
        57        C      tau(  57) = (   0.5571121   0.3292217   0.0248727  )
        58        C      tau(  58) = (   0.6343602   0.3641105   0.0248683  )
        59        C      tau(  59) = (   0.6822517   0.4335190   0.0248235  )
        60        C      tau(  60) = (   0.6834946   0.5180723   0.0248069  )
[...]
       183        C      tau( 183) = (   0.3957010   0.3680272   0.1236509  )
       184        C      tau( 184) = (   0.4722038   0.3312175   0.1236300  )
       185        C      tau( 185) = (   0.5571101   0.3292469   0.1236004  )
       186        C      tau( 186) = (   0.6342422   0.3642248   0.1235771  )
       187        C      tau( 187) = (   0.6818999   0.4336324   0.1235393  )
       188        C      tau( 188) = (   0.6832693   0.5180479   0.1235206  )
       189        C      tau( 189) = (   0.6564289   0.5989957   0.1235023  )
       190        C      tau( 190) = (   0.6244107   0.6781656   0.1235371  )
       191        C      tau( 191) = (   0.5877521   0.7547451   0.1238109  )
       192        C      tau( 192) = (   0.5441768   0.8262565   0.1113848  )
       193        Al     tau( 193) = (   0.5385073   0.6716540   0.0640720  )
       194        Cl     tau( 194) = (   0.5540224   0.6743141   0.0239399  )
       195        Cl     tau( 195) = (   0.5404056   0.7092286   0.0850823  )
       196        Cl     tau( 196) = (   0.5627465   0.6419980   0.0853179  )
       197        Cl     tau( 197) = (   0.4969876   0.6594448   0.0627506  )

     DFT-D3 Dispersion Correction (3-body terms):
       Reference C6 values for interpolation:

         atom   Coordination number   C6
         C          0.000            98.23
         C          0.987            86.49
         C          1.998            58.72
         C          2.999            51.56
         C          3.984            36.41
         Al         0.000          1081.08
         Al         0.965           875.51
         Al         1.931           513.50
         Al         2.915           307.19
         Cl         0.000           184.69
         Cl         0.997           180.80

       Values used:

         atom   Coordination number  R0_AB[au]  C6      C8
         C          2.436            2.750     55.97   1618.67
         C          2.139            2.750     58.45   1690.52
         C          2.150            2.750     58.40   1689.17
[...]
   -14.0867 -14.0426 -13.9972 -13.9524 -13.9390 -13.9105 -13.8253 -13.7854
   -13.7843 -13.7260 -13.6792 -13.5945 -13.5383 -13.4593 -13.3755 -13.3375
   -13.2729 -13.2571 -13.1519 -13.1108 -13.0343 -12.9780 -12.9657 -12.9568
   -12.9279 -12.9263 -12.8905 -12.8663 -12.8363 -12.8108 -12.7754 -12.7647
   -12.7051 -12.6862 -12.5721 -12.5032 -12.4397 -12.3980 -12.2991 -12.2442
   -12.1850 -12.1491 -12.1329 -12.0911 -12.0747 -12.0470 -11.9608 -11.9566
   -11.9368 -11.9129 -11.8907 -11.8752 -11.8547 -11.8420 -11.7828 -11.7563
   -11.7499 -11.7441 -11.6825 -11.6628 -11.6442 -11.6191 -11.5861 -11.5569
   -11.5222 -11.4963 -11.4931 -11.4860 -11.4819 -11.4638 -11.4396 -11.4138
   -11.3848 -11.3556 -11.3182 -11.2883 -11.2672 -11.2518 -11.2146 -11.2133
   -11.1347 -11.1034 -11.0902 -11.0769 -11.0593 -11.0095 -10.9038 -10.8694
   -10.8430 -10.8123 -10.7333 -10.6810 -10.6593 -10.6211 -10.5775 -10.5743
   -10.5589 -10.5158 -10.4967 -10.4607 -10.4338 -10.4057 -10.3822 -10.3193
   -10.3069 -10.2602 -10.2363 -10.2258 -10.1703 -10.1459 -10.1151 -10.1022
   -10.0431 -10.0116  -9.9712  -9.9569  -9.9364  -9.8773  -9.8610  -9.8378
    -9.8036  -9.7675  -9.7590  -9.7329  -9.6906  -9.6730  -9.6670  -9.6512
    -9.6078  -9.5912  -9.5732  -9.5593  -9.5479  -9.5273  -9.5091  -9.4628
    -9.3794  -9.3517  -9.3242  -9.3002  -9.2581  -9.1951  -9.0133  -8.9481
    -8.8779  -8.7828  -8.6330  -8.5614  -8.5215  -8.5005  -8.4426  -8.4078
    -8.3756  -8.3441  -8.3089  -8.2371  -8.2152  -8.1145  -8.0763  -8.0539
    -8.0227  -7.9644  -7.8854  -7.8335  -7.7803  -7.7664  -7.7079  -7.6156
    -7.5804  -7.5727  -7.4825  -7.4465  -7.4166  -7.4012  -7.3938  -7.3837
    -7.3723  -7.3539  -7.3382  -7.3097  -7.2973  -7.2665  -7.2379  -7.2249
    -7.2114  -7.1874  -7.1829  -7.1748  -7.1228  -7.0762  -7.0687  -7.0480
    -6.9991  -6.9905  -6.9532  -6.9247  -6.8974  -6.8274  -6.7819  -6.7045
    -6.6847  -6.6719  -6.6395  -6.6279  -6.6023  -6.5993  -6.5920  -6.5812
    -6.5698  -6.5610  -6.5570  -6.5200  -6.5118  -6.4902  -6.4759  -6.4642
    -6.4311  -6.4184  -6.4087  -6.3780  -6.3701  -6.3499  -6.3271  -6.2802
    -6.2675  -6.2284  -6.1698  -6.1478  -6.1391  -6.1192  -6.0928  -6.0741
    -6.0412  -6.0221  -5.9812  -5.8945  -5.7976  -5.6844  -5.6411  -5.6044
    -5.5708  -5.5669  -5.4743  -5.4443  -5.4324  -5.3913  -5.3380  -5.2827
    -5.2392  -5.2093  -5.1697  -5.1068  -5.0693  -4.9673  -4.8985  -4.7811
    -4.7672  -4.6357  -4.5044  -4.3761  -4.3111  -4.2668  -4.2599  -4.2165
    -4.1656  -4.1550  -4.1326  -4.0888  -4.0470  -4.0295  -3.9692  -3.9437
    -3.9147  -3.8997  -3.7934  -3.7069  -3.6579  -3.5249  -3.4310  -3.4219
    -3.3691  -3.2904  -3.2849  -3.2299  -3.1693  -3.1589  -3.1220  -3.0776
    -3.0597  -2.9836  -2.8783  -2.7842  -2.7489  -2.7112  -2.6802  -2.6710
    -2.6603  -2.6349  -2.6067  -2.6036  -2.5577  -2.5392  -2.4610  -2.4027
    -2.3648  -2.3209  -2.2818  -2.2261  -2.1775  -2.0360  -1.9973  -1.8310
    -1.7745  -1.7368  -1.6859  -1.6415  -1.6305  -1.5873  -1.4263  -1.3692
    -1.2666  -0.9591  -0.8001  -0.7839  -0.7714  -0.6548  -0.6178  -0.5920

     the Fermi energy is    -5.2927 ev

!    total energy              =   -3886.28355096 Ry
     total all-electron energy =    -18797.807340 Ry
     estimated scf accuracy    <       0.00000004 Ry
     smearing contrib. (-TS)   =      -0.00962727 Ry
     internal energy E=F+TS    =   -3886.27392369 Ry

     The total energy is F=E-TS. E is the sum of the following terms:
     one-electron contribution =  -46399.76745628 Ry
     hartree contribution      =   23286.98604467 Ry
     xc contribution           =    -922.86138032 Ry
     ewald contribution        =   21550.49600945 Ry
     DFT-D3 Dispersion         =      -0.43148909 Ry
     one-center paw contrib.   =   -1400.69565212 Ry

     convergence has been achieved in  20 iterations

[...]

     Forces acting on atoms (cartesian axes, Ry/au):

     atom    1 type  1   force =     0.00005070   -0.00026072    0.00074312
     atom    2 type  1   force =    -0.00180486    0.00574119    0.00268258
     atom    3 type  1   force =    -0.27395975    0.13698057    0.01375323
     atom    4 type  1   force =    -0.32376637   -0.02441820    0.00849050
     atom    5 type  1   force =    -0.23837182   -0.21356550   -0.00111178
     atom    6 type  1   force =    -0.03333448   -0.30824626    0.00019755
     atom    7 type  1   force =     0.15833998   -0.26219777    0.00456676
     atom    8 type  1   force =     0.26178452   -0.15643357    0.00842680
     atom    9 type  1   force =     0.30592733   -0.03426208    0.00738424
     atom   10 type  1   force =     0.29546092    0.09928678    0.00383780
     atom   11 type  1   force =     0.20690286    0.23238297   -0.00096319
     atom   12 type  1   force =     0.03843897    0.30142081    0.00449293
     atom   13 type  1   force =    -0.08582024    0.29081684    0.01302047
     atom   14 type  1   force =    -0.11767672    0.29175489    0.00514459
     atom   15 type  1   force =    -0.13875320    0.30825032   -0.02649701
     atom   16 type  1   force =     0.00017337    0.00093940   -0.00146350
     atom   17 type  1   force =    -0.01848555    0.00147355   -0.01334213
     atom   18 type  1   force =     0.00375832   -0.00139502   -0.00065134
     atom   19 type  1   force =     0.30157746   -0.15488826   -0.01386844
     atom   20 type  1   force =     0.32135108    0.03904681    0.00094053
     atom   21 type  1   force =     0.22292058    0.22344380   -0.00007073
     atom   22 type  1   force =     0.01746796    0.31436768   -0.00253956
     atom   23 type  1   force =    -0.17439173    0.26171688   -0.00005429
     atom   24 type  1   force =    -0.27358098    0.14966897    0.00430617
     atom   25 type  1   force =    -0.30872667    0.02324999    0.00645953
     atom   26 type  1   force =    -0.28948273   -0.10999308    0.00479179
     atom   27 type  1   force =    -0.19566320   -0.24075784   -0.00093156
     atom   28 type  1   force =    -0.02374458   -0.31267622   -0.00219767
     atom   29 type  1   force =     0.09534338   -0.29835396    0.00818588
     atom   30 type  1   force =     0.11445887   -0.28584912    0.01587265
     atom   31 type  1   force =     0.11630330   -0.25591487    0.01981550
     atom   32 type  1   force =     0.00038612   -0.00035657   -0.00247099
     atom   33 type  1   force =     0.00226618   -0.00009345    0.00023531
     atom   34 type  1   force =    -0.00209118    0.00285924    0.00135215
     atom   35 type  1   force =     0.00242821    0.00071915    0.00159899
     atom   36 type  1   force =    -0.00024738    0.00040687   -0.00027539
     atom   37 type  1   force =    -0.00050109   -0.00077851   -0.00139855
     atom   38 type  1   force =     0.00018125   -0.00006463   -0.00062697
     atom   39 type  1   force =     0.00055181   -0.00059006   -0.00097880
     atom   40 type  1   force =     0.00066970   -0.00038369   -0.00093679
     atom   41 type  1   force =     0.00052460   -0.00000834   -0.00082161
     atom   42 type  1   force =     0.00033348    0.00018890   -0.00077551
     atom   43 type  1   force =     0.00042204    0.00056973   -0.00102071
     atom   44 type  1   force =    -0.00036918    0.00042013   -0.00087470
     atom   45 type  1   force =    -0.00003518    0.00101612   -0.00043409
     atom   46 type  1   force =    -0.00112500    0.00241761   -0.00146707
     atom   47 type  1   force =    -0.00031984    0.00121830   -0.00104136
     atom   48 type  1   force =    -0.00020992    0.00062206   -0.00770389
     atom   49 type  1   force =    -0.00045761    0.00682621   -0.00275040
     atom   50 type  1   force =     0.00072954    0.00054913   -0.00241891
     atom   51 type  1   force =     0.00303160   -0.00027719   -0.00110703
     atom   52 type  1   force =     0.00042215    0.00091544   -0.00044084
     atom   53 type  1   force =    -0.00016490   -0.00041385   -0.00101049
     atom   54 type  1   force =    -0.00021096    0.00032198   -0.00080864
     atom   55 type  1   force =    -0.00025814    0.00015314   -0.00085679
     atom   56 type  1   force =    -0.00062525    0.00025363   -0.00088147
     atom   57 type  1   force =    -0.00069724   -0.00003143   -0.00096286
     atom   58 type  1   force =    -0.00035951   -0.00029728   -0.00086920
     atom   59 type  1   force =    -0.00029759   -0.00053400   -0.00096402
     atom   60 type  1   force =     0.00012383   -0.00179970   -0.00119129
[...]
     atom  183 type  1   force =    -0.00263593    0.00111884    0.00017507
     atom  184 type  1   force =    -0.00655928    0.00075422    0.00035886
     atom  185 type  1   force =    -0.00506683   -0.00155511    0.00021556
     atom  186 type  1   force =     0.00065555   -0.00100949   -0.00035638
     atom  187 type  1   force =     0.00094742   -0.00135605   -0.00081105
     atom  188 type  1   force =     0.00147730   -0.00091312    0.00154359
     atom  189 type  1   force =    -0.00022605    0.00178042   -0.00231859
     atom  190 type  1   force =     0.00071067   -0.00081420    0.00047497
     atom  191 type  1   force =    -0.00044538    0.00064989    0.00080652
     atom  192 type  1   force =     0.00008424   -0.00029690    0.00422118
     atom  193 type  2   force =    -0.00031478    0.00041632   -0.00009194
     atom  194 type  3   force =     0.00008667    0.00031675    0.00025484
     atom  195 type  3   force =     0.00013237    0.00075820   -0.00025788
     atom  196 type  3   force =    -0.00001983    0.00048787    0.00046153
     atom  197 type  3   force =    -0.00001181    0.00047341    0.00011829

     Total force =     0.034955     Total SCF correction =     0.000271
     Energy error            =      1.4E-03 Ry
     Gradient error          =      7.7E-03 Ry/Bohr

     number of scf cycles    =  30
     number of bfgs steps    =  29

     energy             old  =   -3886.2821272222 Ry
     energy             new  =   -3886.2835509571 Ry

     CASE: energy            _new < energy            _old

     new trust radius        =       0.0548617511 bohr
     new conv_thr            =       0.0000000770 Ry

ATOMIC_POSITIONS (angstrom)
C               30.7689946004       21.8808437593        0.8836390866
C               29.7699166623       25.5192938571        7.1489280810
C               27.2324084417       28.8769231601        0.0179695737    0   0   0
C               23.1842920721       30.0662509373        0.0171169542    0   0   0
C               19.1661798195       28.8015785909        0.0139660156    0   0   0
C               16.9078558270       25.2726117551        0.0131251452    0   0   0
C               17.5109722178       21.1124548595        0.0121721040    0   0   0
C               20.3619411575       17.9823600709        0.0118061334    0   0   0
C               24.3091265243       16.4190661989        0.0108451698    0   0   0
C               28.5500075909       16.6238126688        0.0093827525    0   0   0
C               32.2478668190       18.6804381467        0.0086398353    0   0   0
C               34.2723701106       22.3703930714        0.0069866670    0   0   0
C               33.9954114585       26.5929906427        0.0065072083    0   0   0
C               32.5577418032       30.6105005714        0.0053494007    0   0   0
C               30.9410803883       34.5580950653        0.0088053561    0   0   0
C               28.9306535876       38.5243623803        7.2871953391
C               30.7311720896       22.9453981510        0.1998662222    0   0   0
C               29.1964901777       26.6250968819        7.2198917835
C               25.9628771329       29.5200672808        0.0179423026    0   0   0
C               21.7646280812       29.9321529434        0.0156112086    0   0   0
C               18.1315169709       27.8219232482        0.0137042636    0   0   0
C               16.7912570834       23.8528728864        0.0124334577    0   0   0
C               18.2747815938       19.9096888172        0.0121896666    0   0   0
C               21.5985924225       17.2753149142        0.0114852923    0   0   0
C               25.7275810495       16.2853839619        0.0102933055    0   0   0
C               29.8912357576       17.1031404051        0.0089989290    0   0   0
C               33.1709849467       19.7642198148        0.0083183218    0   0   0
C               34.4102476460       23.7862434732        0.0065638659    0   0   0
C               33.5721785028       27.9511568862        0.0060836325    0   0   0
C               32.0253120384       31.9302958858        0.0051827615    0   0   0
C               30.3486144465       35.8529941478        0.0114293296    0   0   0
C               28.2594124814       39.5856106374        7.2941700745
C               30.6701756384       24.1712759710        0.9966524287
C               29.0356633645       27.5094608228        1.2603651609
C               25.3065619807       29.8131070523        1.1955636902
C               21.0337576100       29.8180378571        1.1841488638
C               17.6215015798       27.2856819661        1.1802438617
C               16.7688103571       23.1211322295        1.1825906241
C               18.6707256577       19.2994340373        1.1868848096
C               22.2265969289       16.9070958809        1.1890959739
C               26.4570784189       16.2050556690        1.1854148771
C               30.5906256242       17.3409172569        1.1792847267
C               33.6700086914       20.3147896790        1.1724717396
C               34.4877283646       24.5041833303        1.1822237039
C               33.3527433092       28.6336688389        1.1929185656
C               31.7497699953       32.6132644044        1.1864384023
C               29.9414321471       36.6335996907        1.1014449456
C               27.7772949768       40.3962161150        1.3292232381
C               30.3672414761       25.5170024433        1.1623380422
C               27.9278915306       28.3556106522        1.1047999578
C               23.9183705077       30.0892813257        1.1926984607
C               19.7313081315       29.2640006880        1.1854360322
C               17.0087820851       26.0071374142        1.1792217682
C               17.1299261611       21.7501344175        1.1805465608
C               19.7120514510       18.3382852334        1.1841597418
C               23.5775383510       16.4802592876        1.1869769107
C               27.8638017578       16.3722276033        1.1846984843
C               31.7707984298       18.1240834921        1.1790325181
C               34.2192479157       21.6223176937        1.1689724749
C               34.2640820598       25.9013306278        1.1807178196
[...]
C               19.5363823905       18.3177835201        5.9880044334
C               23.4479949993       16.3951093155        5.9930377848
C               27.8017094861       16.2393818521        5.9880226335
C               31.7903739664       17.9694123456        5.9773535929
C               34.3094504619       21.4744245004        5.9747782170
C               34.3447900569       25.7780068953        5.9953514066
C               32.8488894127       29.8696063722        6.0072059664
C               31.2408678625       33.9067906044        5.9824482018
C               29.3964764168       37.7262342379        6.2265818242
C               27.1456489997       41.4108573728        5.6359078152
Al              26.9154639690       33.6159124005        3.2094963093
Cl              27.7119904112       33.7149139617        1.2099736928
Cl              27.0492050698       35.4986135177        4.2595687529
Cl              28.1297015585       32.1522860926        4.2859222515
Cl              24.8378647842       33.0487928772        3.1408953813

     Writing config-only to output data dir ./ns.save/ :
     XML data file
     NEW-OLD atomic charge density approx. for the potential

     Check: negative core charge=   -0.000001

[...]

     Self-consistent Calculation

[...]

     iteration #  6     ecut=    45.33 Ry     beta= 0.70
     Davidson diagonalization with overlap
     ethr =  1.00E-06,  avg # of iterations =  2.0

     negative rho (up, down):  5.247E-02 0.000E+00

     total energy              =   -3886.28470905 Ry
     estimated scf accuracy    <       0.00891301 Ry

     iteration #  7     ecut=    45.33 Ry     beta= 0.70
     Davidson diagonalization with overlap

     max_seconds     =   84000.00
     Calculation stopped in k-point loop, point #     1
     Calculation stopped in scf loop at iteration #     6

     Writing config to output data dir ./ns.save/ :
     XML data file, charge density distributed wavefunctions

     General routines

     Parallel routines

   This run was terminated on:  20:47:45  16Apr2025

   JOB DONE.