     Program PWSCF v.7.3.1 starts on  1Aug2025 at 12: 3:27

     Reading input from pw.in
Warning: card &CELL ignored
Warning: card / ignored

     Current dimensions of program PWSCF are:
     Max number of different atomic species (ntypx) = 10
     Max number of k-points (npk) =  40000
     Max angular momentum in pseudopotentials (lmaxx) =  4
     file C.pbe-n-kjpaw_psl.1.0.0.UPF: wavefunction(s)  2S 2P renormalized
     file Al.pbe-n-kjpaw_psl.1.0.0.UPF: wavefunction(s)  3S 3P renormalized
     file Cl.pbe-n-kjpaw_psl.1.0.0.UPF: wavefunction(s)  3S 3P renormalized

     R & G space division:  proc/nbgrp/npool/nimage =       8
     Subspace diagonalization in iterative solution of the eigenvalue problem:
     one sub-group per band group will be used

     Using Slab Decomposition

     bravais-lattice index     =            0
     lattice parameter (alat)  =      94.4863  a.u.
     unit-cell volume          =  295239.6341 (a.u.)^3
     number of atoms/cell      =          197
     number of atomic types    =            3
     number of electrons       =       799.00
     number of Kohn-Sham states=          480
     kinetic-energy cutoff     =      45.3312  Ry
     charge density cutoff     =     326.2606  Ry
     scf convergence threshold =      1.0E-04
     mixing beta               =       0.1000
     number of iterations used =            8  plain     mixing
     energy convergence thresh.=      1.0E-04
     force convergence thresh. =      1.0E-03
     Exchange-correlation= SLA  PW   PBX  PBC
                           (   1   4   3   4   0   0   0)
     nstep                     =          200

     celldm(1)=  94.486306  celldm(2)=   0.000000  celldm(3)=   0.000000
     celldm(4)=   0.000000  celldm(5)=   0.000000  celldm(6)=   0.000000

     crystal axes: (cart. coord. in units of alat)
               a(1) = (   1.000000   0.000000   0.000000 )
               a(2) = (   0.000000   1.000000   0.000000 )
               a(3) = (   0.000000   0.000000   0.350000 )

     reciprocal axes: (cart. coord. in units 2 pi/alat)
               b(1) = (  1.000000  0.000000  0.000000 )
               b(2) = (  0.000000  1.000000  0.000000 )
               b(3) = (  0.000000  0.000000  2.857143 )

     PseudoPot. # 1 for C  read from file:
     /home/elmer.barquero/carbon_nn/pseudo/C.pbe-n-kjpaw_psl.1.0.0.UPF
     MD5 check sum: 5f16ad9a65e90284d1d834d4ab3b0f7d
     Pseudo is Projector augmented-wave + core cor, Zval =  4.0
     Generated using &quot;atomic&quot; code by A. Dal Corso  v.6.3
     Shape of augmentation charge: PSQ
     Using radial grid of 1073 points,  4 beta functions with:
                l(1) =   0
                l(2) =   0
                l(3) =   1
                l(4) =   1
     Q(r) pseudized with 0 coefficients

     PseudoPot. # 2 for Al read from file:
     /home/elmer.barquero/carbon_nn/pseudo/Al.pbe-n-kjpaw_psl.1.0.0.UPF
     MD5 check sum: 502b6b27b9c6270cab5dd1084b96fa6d
     Pseudo is Projector augmented-wave + core cor, Zval =  3.0
     Generated using &quot;atomic&quot; code by A. Dal Corso  v.6.3
     Shape of augmentation charge: PSQ
     Using radial grid of 1135 points,  6 beta functions with:
                l(1) =   0
                l(2) =   0
                l(3) =   1
                l(4) =   1
                l(5) =   2
                l(6) =   2
     Q(r) pseudized with 0 coefficients

     PseudoPot. # 3 for Cl read from file:
     /home/elmer.barquero/carbon_nn/pseudo/Cl.pbe-n-kjpaw_psl.1.0.0.UPF
     MD5 check sum: 530da96d25dcb7781b0586ca00827062
     Pseudo is Projector augmented-wave + core cor, Zval =  7.0
     Generated using &quot;atomic&quot; code by A. Dal Corso  v.6.3
     Shape of augmentation charge: PSQ
     Using radial grid of 1157 points,  6 beta functions with:
                l(1) =   0
                l(2) =   0
                l(3) =   1
                l(4) =   1
                l(5) =   2
                l(6) =   2
     Q(r) pseudized with 0 coefficients

     atomic species   valence    mass     pseudopotential
     C                 4.00    12.01100     C ( 1.00)
     Al                3.00    26.98154     Al( 1.00)
     Cl                7.00    35.45000     Cl( 1.00)

     No symmetry found

   Cartesian axes

     site n.     atom                  positions (alat units)
         1        C      tau(   1) = (   0.6166860   0.4384695   0.0187519  )
         2        C      tau(   2) = (   0.6003894   0.5132267   0.1430859  )
         3        C      tau(   3) = (   0.5446482   0.5775385   0.0003594  )
         4        C      tau(   4) = (   0.4636858   0.6013250   0.0003423  )
         5        C      tau(   5) = (   0.3833236   0.5760316   0.0002793  )
         6        C      tau(   6) = (   0.3381571   0.5054522   0.0002625  )
         7        C      tau(   7) = (   0.3502194   0.4222491   0.0002434  )
         8        C      tau(   8) = (   0.4072388   0.3596472   0.0002361  )
         9        C      tau(   9) = (   0.4861825   0.3283813   0.0002169  )
        10        C      tau(  10) = (   0.5710002   0.3324763   0.0001877  )
        11        C      tau(  11) = (   0.6449573   0.3736088   0.0001728  )
        12        C      tau(  12) = (   0.6854474   0.4474079   0.0001397  )
        13        C      tau(  13) = (   0.6799082   0.5318598   0.0001301  )
        14        C      tau(  14) = (   0.6511548   0.6122100   0.0001070  )
        15        C      tau(  15) = (   0.6188216   0.6911619   0.0001761  )
        16        C      tau(  16) = (   0.5769448   0.7753584   0.1416209  )
        17        C      tau(  17) = (   0.6146234   0.4589080   0.0039973  )
        18        C      tau(  18) = (   0.5877517   0.5347418   0.1443408  )
        19        C      tau(  19) = (   0.5192575   0.5904013   0.0003588  )
        20        C      tau(  20) = (   0.4352926   0.5986431   0.0003122  )
        21        C      tau(  21) = (   0.3626303   0.5564385   0.0002741  )
        22        C      tau(  22) = (   0.3358251   0.4770575   0.0002487  )
        23        C      tau(  23) = (   0.3654956   0.3981938   0.0002438  )
        24        C      tau(  24) = (   0.4319718   0.3455063   0.0002297  )
        25        C      tau(  25) = (   0.5145516   0.3257077   0.0002059  )
        26        C      tau(  26) = (   0.5978247   0.3420628   0.0001800  )
        27        C      tau(  27) = (   0.6634197   0.3952844   0.0001664  )
        28        C      tau(  28) = (   0.6882050   0.4757249   0.0001313  )
        29        C      tau(  29) = (   0.6714436   0.5590231   0.0001217  )
        30        C      tau(  30) = (   0.6405062   0.6386059   0.0001037  )
        31        C      tau(  31) = (   0.6069723   0.7170599   0.0002286  )
        32        C      tau(  32) = (   0.5636170   0.7967669   0.1403178  )
        33        C      tau(  33) = (   0.6145178   0.4840465   0.0196082  )
        34        C      tau(  34) = (   0.5806158   0.5501521   0.0249475  )
        35        C      tau(  35) = (   0.5064302   0.5968251   0.0239273  )
        36        C      tau(  36) = (   0.4208417   0.5963833   0.0237933  )
        37        C      tau(  37) = (   0.3527317   0.5455320   0.0237028  )
        38        C      tau(  38) = (   0.3357080   0.4623479   0.0236930  )
        39        C      tau(  39) = (   0.3734759   0.3858202   0.0236406  )
        40        C      tau(  40) = (   0.4445093   0.3378608   0.0236469  )
        41        C      tau(  41) = (   0.5291299   0.3241195   0.0236668  )
        42        C      tau(  42) = (   0.6116170   0.3471773   0.0236286  )
        43        C      tau(  43) = (   0.6736384   0.4062584   0.0233507  )
        44        C      tau(  44) = (   0.6901556   0.4900900   0.0235395  )
        45        C      tau(  45) = (   0.6674892   0.5727978   0.0238688  )
        46        C      tau(  46) = (   0.6355115   0.6524418   0.0238171  )
        47        C      tau(  47) = (   0.5995448   0.7325062   0.0219836  )
        48        C      tau(  48) = (   0.5632227   0.7959882   0.0163805  )
        49        C      tau(  49) = (   0.6076625   0.5108999   0.0227663  )
        50        C      tau(  50) = (   0.5586215   0.5672725   0.0220217  )
        51        C      tau(  51) = (   0.4785783   0.6022027   0.0237842  )
        52        C      tau(  52) = (   0.3947874   0.5852454   0.0237354  )
        53        C      tau(  53) = (   0.3404927   0.5199609   0.0237164  )
        54        C      tau(  54) = (   0.3428624   0.4349324   0.0236974  )
        55        C      tau(  55) = (   0.3942247   0.3665525   0.0236321  )
        56        C      tau(  56) = (   0.4715131   0.3293707   0.0236438  )
        57        C      tau(  57) = (   0.5572330   0.3275705   0.0236793  )
        58        C      tau(  58) = (   0.6352160   0.3628223   0.0236390  )
        59        C      tau(  59) = (   0.6847677   0.4323550   0.0232609  )
        60        C      tau(  60) = (   0.6857142   0.5180346   0.0234885  )
[...]
       183        C      tau( 183) = (   0.3899836   0.3644564   0.1194259  )
       184        C      tau( 184) = (   0.4683790   0.3255016   0.1194478  )
       185        C      tau( 185) = (   0.5559339   0.3238163   0.1195385  )
       186        C      tau( 186) = (   0.6359170   0.3594478   0.1193839  )
       187        C      tau( 187) = (   0.6879278   0.4291677   0.1190496  )
       188        C      tau( 188) = (   0.6901727   0.5157965   0.1194699  )
       189        C      tau( 189) = (   0.6594850   0.5977558   0.1199120  )
       190        C      tau( 190) = (   0.6255036   0.6782530   0.1198340  )
       191        C      tau( 191) = (   0.5873310   0.7579592   0.1222863  )
       192        C      tau( 192) = (   0.5419220   0.8308456   0.1035920  )
       193        Al     tau( 193) = (   0.5369463   0.6741398   0.0945526  )
       194        Cl     tau( 194) = (   0.5539596   0.6739884   0.0548060  )
       195        Cl     tau( 195) = (   0.5411480   0.7136696   0.1126288  )
       196        Cl     tau( 196) = (   0.5590311   0.6460808   0.1190563  )
       197        Cl     tau( 197) = (   0.4949210   0.6652382   0.0925717  )

     DFT-D3 Dispersion Correction (3-body terms):
       Reference C6 values for interpolation:

         atom   Coordination number   C6
         C          0.000            98.23
         C          0.987            86.49
         C          1.998            58.72
         C          2.999            51.56
         C          3.984            36.41
         Al         0.000          1081.08
         Al         0.965           875.51
         Al         1.931           513.50
         Al         2.915           307.19
         Cl         0.000           184.69
         Cl         0.997           180.80

       Values used:

         atom   Coordination number  R0_AB[au]  C6      C8
         C          2.346            2.750     57.07   1650.44
         C          2.193            2.750     58.21   1683.46
         C          2.166            2.750     58.34   1687.26
         C          2.183            2.750     58.26   1684.98
         C          2.186            2.750     58.25   1684.57
[...]
   -12.7801 -12.7684 -12.7627 -12.7408 -12.7022 -12.6780 -12.6574 -12.6201
   -12.5461 -12.5223 -12.4296 -12.3868 -12.3239 -12.2881 -12.1606 -12.1016
   -12.0684 -12.0439 -11.9803 -11.9553 -11.9456 -11.9247 -11.8437 -11.8051
   -11.7890 -11.7677 -11.7554 -11.7253 -11.6983 -11.6902 -11.6771 -11.6312
   -11.5983 -11.5953 -11.5281 -11.5193 -11.4998 -11.4654 -11.4337 -11.4159
   -11.3866 -11.3684 -11.3627 -11.3323 -11.3240 -11.3196 -11.3128 -11.3030
   -11.2704 -11.2630 -11.2036 -11.1682 -11.1538 -11.1351 -11.0989 -11.0963
   -11.0545 -10.9860 -10.9790 -10.9407 -10.9179 -10.8920 -10.8618 -10.7509
   -10.7053 -10.6679 -10.6531 -10.5709 -10.5604 -10.4963 -10.4713 -10.4379
   -10.4017 -10.3908 -10.3667 -10.3414 -10.3125 -10.3003 -10.2741 -10.2336
   -10.2148 -10.1711 -10.1391 -10.0883 -10.0728 -10.0573 -10.0198  -9.9978
    -9.9415  -9.9102  -9.8796  -9.8270  -9.8045  -9.7826  -9.7229  -9.6990
    -9.6672  -9.6483  -9.5903  -9.5822  -9.5547  -9.5363  -9.5094  -9.4956
    -9.4843  -9.4734  -9.4231  -9.4154  -9.4030  -9.3988  -9.3794  -9.3755
    -9.3350  -9.2890  -9.2246  -9.1724  -9.1594  -9.1405  -9.0383  -8.9063
    -8.8429  -8.7746  -8.7200  -8.5540  -8.4807  -8.3872  -8.3367  -8.3221
    -8.2717  -8.2459  -8.2059  -8.1695  -8.1152  -8.0721  -8.0334  -7.9574
    -7.9387  -7.8677  -7.8375  -7.7712  -7.7530  -7.6622  -7.6196  -7.6054
    -7.5721  -7.5666  -7.5339  -7.4653  -7.4011  -7.3763  -7.2928  -7.2484
    -7.2284  -7.2131  -7.2058  -7.1713  -7.1441  -7.1374  -7.1340  -7.0921
    -7.0850  -7.0607  -7.0478  -7.0337  -7.0042  -7.0004  -6.9802  -6.9294
    -6.9085  -6.9008  -6.8859  -6.8320  -6.7990  -6.7879  -6.7806  -6.7625
    -6.6985  -6.6403  -6.5604  -6.5545  -6.5371  -6.4863  -6.4623  -6.4382
    -6.4233  -6.4223  -6.4189  -6.4163  -6.4111  -6.3977  -6.3930  -6.3839
    -6.3782  -6.3550  -6.3472  -6.3197  -6.3099  -6.2981  -6.2829  -6.2742
    -6.2512  -6.2416  -6.2310  -6.2144  -6.1875  -6.1357  -6.1141  -6.0583
    -5.9990  -5.9653  -5.9162  -5.8900  -5.8751  -5.8515  -5.7816  -5.7424
    -5.7225  -5.6828  -5.6252  -5.4413  -5.3056  -5.2024  -5.1637  -5.0698
    -5.0672  -5.0134  -4.9989  -4.9255  -4.8251  -4.7566  -4.7008  -4.6613
    -4.6111  -4.5000  -4.3956  -4.3380  -4.3209  -4.2234  -4.1570  -4.1139
    -4.0282  -4.0078  -3.9648  -3.9556  -3.9316  -3.8691  -3.8586  -3.8560
    -3.7744  -3.7354  -3.6403  -3.6095  -3.4767  -3.3524  -3.3375  -3.2706
    -3.2274  -3.1791  -3.1241  -3.0955  -3.0341  -2.9981  -2.9699  -2.9117
    -2.9024  -2.8689  -2.7389  -2.6660  -2.6027  -2.5851  -2.5577  -2.5168
    -2.5028  -2.4753  -2.4671  -2.4412  -2.4081  -2.3787  -2.3155  -2.2783
    -2.2128  -2.1743  -2.1307  -2.1001  -2.0165  -1.9024  -1.8555  -1.6749
    -1.6429  -1.5889  -1.5510  -1.4773  -1.4595  -1.4369  -1.2654  -1.2099
    -1.1061  -0.8820  -0.7301  -0.6391  -0.6151  -0.5365  -0.4533  -0.4348

     the Fermi energy is    -5.1115 ev

!    total energy              =   -3886.48164983 Ry
     total all-electron energy =    -18798.005439 Ry
     estimated scf accuracy    <       0.00000090 Ry
     smearing contrib. (-TS)   =      -0.01150559 Ry
     internal energy E=F+TS    =   -3886.47014424 Ry

     The total energy is F=E-TS. E is the sum of the following terms:
     one-electron contribution =  -46303.16195818 Ry
     hartree contribution      =   23241.88541698 Ry
     xc contribution           =    -923.18715378 Ry
     ewald contribution        =   21499.07938509 Ry
     DFT-D3 Dispersion         =      -0.42669793 Ry
     one-center paw contrib.   =   -1400.65913642 Ry

     convergence has been achieved in  10 iterations

[...]

     Forces acting on atoms (cartesian axes, Ry/au):

     atom    1 type  1   force =     0.00006260    0.00035753    0.00013265
     atom    2 type  1   force =    -0.00047583    0.00075617    0.00015724
     atom    3 type  1   force =    -0.27511502    0.13872560    0.00888594
     atom    4 type  1   force =    -0.31391499   -0.02342952    0.01078684
     atom    5 type  1   force =    -0.23287750   -0.20972409    0.00210573
     atom    6 type  1   force =    -0.03321228   -0.30791156    0.00063409
     atom    7 type  1   force =     0.16086154   -0.26662498   -0.00033675
     atom    8 type  1   force =     0.26813368   -0.16047220   -0.00067272
     atom    9 type  1   force =     0.31013817   -0.03479035    0.00056142
     atom   10 type  1   force =     0.29603060    0.10004352    0.00138434
     atom   11 type  1   force =     0.20871267    0.23474534   -0.00432762
     atom   12 type  1   force =     0.03948770    0.30518653   -0.00203134
     atom   13 type  1   force =    -0.08550216    0.28979723    0.00892841
     atom   14 type  1   force =    -0.11743841    0.29117986    0.00913682
     atom   15 type  1   force =    -0.14740761    0.31922489   -0.02016752
     atom   16 type  1   force =     0.00111938   -0.00080018    0.00060838
     atom   17 type  1   force =    -0.01578851    0.01744509    0.00053322
     atom   18 type  1   force =     0.00025551   -0.00017219    0.00033762
     atom   19 type  1   force =     0.30128507   -0.15378305   -0.01701671
     atom   20 type  1   force =     0.32220376    0.03955992   -0.00142420
     atom   21 type  1   force =     0.22126036    0.22124552    0.00096451
     atom   22 type  1   force =     0.01772020    0.30876315    0.00140609
     atom   23 type  1   force =    -0.17283851    0.25967328   -0.00068235
     atom   24 type  1   force =    -0.27504999    0.15025288   -0.00080452
     atom   25 type  1   force =    -0.31117952    0.02348347    0.00155924
     atom   26 type  1   force =    -0.29008560   -0.10947340    0.00296046
     atom   27 type  1   force =    -0.19605607   -0.24111102   -0.00315577
     atom   28 type  1   force =    -0.02408761   -0.31750440   -0.00982517
     atom   29 type  1   force =     0.09462409   -0.29708703    0.00459016
     atom   30 type  1   force =     0.11526358   -0.28445381    0.01621542
     atom   31 type  1   force =     0.13401001   -0.29120512    0.00088381
     atom   32 type  1   force =    -0.00086023    0.00040231    0.00032990
     atom   33 type  1   force =    -0.00005227   -0.00017307   -0.00042033
     atom   34 type  1   force =     0.00063581   -0.00035329   -0.00038937
     atom   35 type  1   force =    -0.00060021   -0.00009739    0.00028507
     atom   36 type  1   force =    -0.00026717   -0.00003154   -0.00042145
     atom   37 type  1   force =     0.00031043    0.00009732   -0.00014091
     atom   38 type  1   force =    -0.00004509    0.00009688   -0.00002112
     atom   39 type  1   force =     0.00001296   -0.00003778   -0.00001300
     atom   40 type  1   force =     0.00014913    0.00001854   -0.00006296
     atom   41 type  1   force =    -0.00010484    0.00002214   -0.00002622
     atom   42 type  1   force =     0.00008577   -0.00001320    0.00000944
     atom   43 type  1   force =    -0.00007331    0.00003437   -0.00006953
     atom   44 type  1   force =     0.00015849   -0.00005516    0.00002488
     atom   45 type  1   force =    -0.00002657   -0.00091119   -0.00011359
     atom   46 type  1   force =    -0.00010040   -0.00034948   -0.00052287
     atom   47 type  1   force =     0.00121774    0.00001829   -0.00132597
     atom   48 type  1   force =    -0.00168565    0.00328713    0.00138400
     atom   49 type  1   force =    -0.00005254    0.00030620   -0.00017162
     atom   50 type  1   force =     0.00014127   -0.00026000   -0.00028274
     atom   51 type  1   force =    -0.00015841   -0.00039232   -0.00050897
     atom   52 type  1   force =     0.00032949   -0.00041004   -0.00024229
     atom   53 type  1   force =     0.00008764   -0.00027566   -0.00024239
     atom   54 type  1   force =     0.00009138    0.00001478   -0.00015267
     atom   55 type  1   force =    -0.00001028    0.00008712   -0.00002911
     atom   56 type  1   force =    -0.00002355    0.00003877   -0.00001532
     atom   57 type  1   force =    -0.00004017    0.00000133   -0.00004924
     atom   58 type  1   force =     0.00020394   -0.00001382    0.00006791
     atom   59 type  1   force =    -0.00013952   -0.00008834   -0.00014217
     atom   60 type  1   force =     0.00009982    0.00020897    0.00010358
[...]
     atom  183 type  1   force =     0.00081381   -0.00071079   -0.00005973
     atom  184 type  1   force =    -0.00091093    0.00033351    0.00000372
     atom  185 type  1   force =     0.00048272    0.00004129   -0.00004838
     atom  186 type  1   force =    -0.00027777   -0.00030124    0.00000042
     atom  187 type  1   force =    -0.00017140   -0.00083531    0.00003389
     atom  188 type  1   force =    -0.00042763    0.00247974    0.00000186
     atom  189 type  1   force =     0.00125956   -0.00202491    0.00082388
     atom  190 type  1   force =    -0.00071934    0.00156521   -0.00051884
     atom  191 type  1   force =     0.00033436   -0.00037957    0.00006525
     atom  192 type  1   force =     0.00120393    0.00082013   -0.00340746
     atom  193 type  2   force =     0.00118017    0.00532822    0.00512977
     atom  194 type  3   force =    -0.00006939   -0.00153729   -0.00243150
     atom  195 type  3   force =    -0.00252755   -0.00486640   -0.00272202
     atom  196 type  3   force =    -0.00126120   -0.00028782   -0.00249979
     atom  197 type  3   force =    -0.00083227   -0.00061491   -0.00129410

     Total force =     0.017762     Total SCF correction =     0.001351
     Energy error            =      1.8E-05 Ry
     Gradient error          =      5.3E-03 Ry/Bohr

     number of scf cycles    =   4
     number of bfgs steps    =   2

     energy             old  =   -3886.4816315510 Ry
     energy             new  =   -3886.4816498307 Ry

     CASE: energy            _new < energy            _old

     WARNING: bfgs curvature condition failed, Theta= 0.069
     new trust radius        =       0.0001500000 bohr
     new conv_thr            =       0.0000010000 Ry

ATOMIC_POSITIONS (angstrom)
C               30.8343020014       21.9234793643        0.9375993397
C               30.0194646237       25.6613430429        7.1542983788
C               27.2324084417       28.8769231601        0.0179695737    0   0   0
C               23.1842920721       30.0662509373        0.0171169542    0   0   0
C               19.1661798195       28.8015785909        0.0139660156    0   0   0
C               16.9078558270       25.2726117551        0.0131251452    0   0   0
C               17.5109722178       21.1124548595        0.0121721040    0   0   0
C               20.3619411575       17.9823600709        0.0118061334    0   0   0
C               24.3091265243       16.4190661989        0.0108451698    0   0   0
C               28.5500075909       16.6238126688        0.0093827525    0   0   0
C               32.2478668190       18.6804381467        0.0086398353    0   0   0
C               34.2723701106       22.3703930714        0.0069866670    0   0   0
C               33.9954114585       26.5929906427        0.0065072083    0   0   0
C               32.5577418032       30.6105005714        0.0053494007    0   0   0
C               30.9410803883       34.5580950653        0.0088053561    0   0   0
C               28.8472607194       38.7679094775        7.0810591604
C               30.7311720896       22.9453981510        0.1998662222    0   0   0
C               29.3875875920       26.7370896878        7.2170434482
C               25.9628771329       29.5200672808        0.0179423026    0   0   0
C               21.7646280812       29.9321529434        0.0156112086    0   0   0
C               18.1315169709       27.8219232482        0.0137042636    0   0   0
C               16.7912570834       23.8528728864        0.0124334577    0   0   0
C               18.2747815938       19.9096888172        0.0121896666    0   0   0
C               21.5985924225       17.2753149142        0.0114852923    0   0   0
C               25.7275810495       16.2853839619        0.0102933055    0   0   0
C               29.8912357576       17.1031404051        0.0089989290    0   0   0
C               33.1709849467       19.7642198148        0.0083183218    0   0   0
C               34.4102476460       23.7862434732        0.0065638659    0   0   0
C               33.5721785028       27.9511568862        0.0060836325    0   0   0
C               32.0253120384       31.9302958858        0.0051827615    0   0   0
C               30.3486144465       35.8529941478        0.0114293296    0   0   0
C               28.1808348130       39.8383531100        7.0158982682
C               30.7258872501       24.2023234565        0.9804054091
C               29.0308004608       27.5075987637        1.2473671052
C               25.3214981943       29.8412534690        1.1963710479
C               21.0420827503       29.8191639571        1.1896580154
C               17.6365924467       27.2766029270        1.1851395661
C               16.7854018300       23.1173968274        1.1846510502
C               18.6737966193       19.2910091830        1.1820326748
C               22.2254698404       16.8930423065        1.1823467898
C               26.4564929318       16.2059775913        1.1833415595
C               30.5808533920       17.3588657878        1.1814317741
C               33.6819165857       20.3129199124        1.1675346893
C               34.5077836044       24.5044991425        1.1769768751
C               33.3744609442       28.6398769066        1.1934408740
C               31.7755726657       32.6220860549        1.1908466828
C               29.9772576579       36.6253122605        1.0991549266
C               28.1611044646       39.7994641380        0.8190486259
C               30.3831256594       25.5450002394        1.1383111415
C               27.9310787953       28.3636188435        1.1010831443
C               23.9289124296       30.1101264865        1.1892032885
C               19.7393775432       29.2622643954        1.1867672174
C               17.0246375322       25.9980415164        1.1858187396
C               17.1431213006       21.7466231040        1.1848688856
C               19.7112353931       18.3276273145        1.1816045082
C               23.5756555842       16.4685348433        1.1821922195
C               27.8616465139       16.3785241891        1.1839665280
C               31.7608026415       18.1411129944        1.1819511665
C               34.2383836167       21.6177465039        1.1630415803
C               34.2857092251       25.9017344248        1.1744282466
[...]
C               19.4991907094       18.2228107073        5.9712964245
C               23.4189372626       16.2750842759        5.9723908443
C               27.7967036833       16.1908136687        5.9769225021
C               31.7958457883       17.9723863778        5.9691966470
C               34.3963872871       21.4583737450        5.9524770776
C               34.5086292135       25.7898616248        5.9734956589
C               32.9742686887       29.8877595782        5.9956127002
C               31.2751686051       33.9126762288        5.9916944128
C               29.3665553766       37.8979495155        6.1143195176
C               27.0961214172       41.5422900350        5.1795414469
Al              26.8473363606       33.7070853339        4.7277215282
Cl              27.6979753343       33.6993985975        2.7402713794
Cl              27.0573596530       35.6834023099        5.6313955188
Cl              27.9515304349       32.3040397250        5.9527726637
Cl              24.7460478218       33.2619024329        4.6285678203

     Writing config-only to output data dir ./ns.save/ :
     XML data file
     NEW-OLD atomic charge density approx. for the potential

     Check: negative core charge=   -0.000001

[...]

     Self-consistent Calculation

     iteration #  1     ecut=    45.33 Ry     beta= 0.10
     CG style diagonalization
     ethr =  1.00E-06,  avg # of iterations =  2.0

     Threshold (ethr) on eigenvalues was too large:
     Diagonalizing with lowered threshold

     CG style diagonalization
     ethr =  3.76E-09,  avg # of iterations = 18.6

     negative rho (up, down):  5.313E-02 0.000E+00

     total energy              =   -3886.48154821 Ry
     estimated scf accuracy    <       0.00068774 Ry

     iteration #  2     ecut=    45.33 Ry     beta= 0.10
     CG style diagonalization

     max_seconds     =   84000.00
     Calculation stopped in k-point loop, point #     1
     Calculation stopped in scf loop at iteration #     1

     Writing config to output data dir ./ns.save/ :
     XML data file, charge density distributed wavefunctions

     General routines

     Parallel routines

   This run was terminated on:  11:26: 8   2Aug2025

   JOB DONE.